(set-logic ALL)
(set-option :produce-models true)
(declare-sort BoundSet 0)
(declare-sort UnboundSet 0)
(set-option :finite-model-find true)
(declare-fun IsSittingOn (BoundSet BoundSet) Bool)
(declare-fun IsInFrontOf (BoundSet BoundSet) Bool)
(declare-fun IsSeatedOn (BoundSet BoundSet) Bool)
(assert (not (=> (exists ((b BoundSet)) (exists ((a BoundSet)) (exists ((c BoundSet)) (and (IsSittingOn b a) (IsInFrontOf a c))))) (exists ((d BoundSet)) (exists ((a BoundSet)) (IsSeatedOn d a))))))
(check-sat)
(get-model)